
c turning on binary mode checking

c parsing input formula with 6752 variables and 27610 clauses

c finished parsing, read 6993 bytes from proof file

c detected empty clause; start verification via backward checking

c 1449 of 27610 clauses in core                            

c 57 of 1642 lemmas in core using 13377 resolution steps

c 0 RAT lemmas in core; 2 redundant literals in core lemmas

s VERIFIED

c verification time: 0.060 seconds
